Max_Width = 5;
Max_Height = 5;
Height = 5;

Width = 5;

grid =  [|  0,  0,  2, -2, -1
         |  0,  0,  3, -2, -1
         |  1,  1,  2, -2, -1
         | -1, -1, -1, -1, -1
         | -1, -1, -1, -1, -1|]